
--- Run: 2026-05-31 20:50:19.176871 ---
[INFO] Running 7 files: and.lp input.lp or.lp output.lp xor.lp main.lp preview.lp

clingo version 5.8.0
Reading from ...al_networks_editor/C-MCPN/gates/and.lp ...
Solving...
Answer: 1 (Time: 0.006s)
neuron("INPUT","INPUT_1") neuron("XOR","XOR_1") neuron("AND","AND_1") neuron("INPUT","INPUT_2") neuron("XOR","XOR_2") neuron("AND","AND_2") neuron("OR","OR_1") neuron("OUTPUT","OUTPUT_1") neuron("OUTPUT","OUTPUT_Carry") neuron("INPUT","INPUT_Carry")
SATISFIABLE

Models       : 1+
Calls        : 1
Time         : 0.006s (Solving: 0.00s 1st Model: 0.00s Unsat: 0.00s)
CPU Time     : 0.002s

--- Run: 2026-05-31 20:52:31.092969 ---
[INFO] Running 7 files: and.lp input.lp or.lp output.lp xor.lp main.lp preview.lp

clingo version 5.8.0
Reading from ...al_networks_editor/C-MCPN/gates/and.lp ...
Solving...
Answer: 1 (Time: 0.004s)
neuron("INPUT","INPUT_1") neuron("XOR","XOR_1") neuron("AND","AND_1") neuron("INPUT","INPUT_2") neuron("XOR","XOR_2") neuron("AND","AND_2") neuron("OR","OR_1") neuron("OUTPUT","OUTPUT_1") neuron("OUTPUT","OUTPUT_Carry") neuron("INPUT","INPUT_Carry")
SATISFIABLE

Models       : 1+
Calls        : 1
Time         : 0.004s (Solving: 0.00s 1st Model: 0.00s Unsat: 0.00s)
CPU Time     : 0.002s
